20 10
48 56 27 27 54 15 27 56 12 2
114 78 41 228 13 33 120 19 21 5
43 79 59 191 45 32 14 37 3 78
23 49 35 5 4 195 124 88 164 38
40 23 5 6 114 69 104 47 65 16
78 64 144 96 16 16 142 3 119 49
92 128 9 37 113 2 22 7 111 21
63 41 1 13 97 120 4 28 16 21
24 13 21 66 93 16 76 53 61 120
66 36 147 159 2 12 37 42 11 63
37 54 83 40 70 39 56 9 42 30
29 241 106 99 118 6 5 150 117 6
59 47 6 17 31 49 75 63 8 115
49 61 65 3 27 31 126 138 11 147
26 106 56 79 99 53 50 1 51 13
198 24 32 17 4 27 176 39 16 11
32 73 5 232 132 140 2 91 87 33
47 51 5 4 143 147 102 6 60 58
31 8 84 32 2 49 176 16 5 55
34 33 17 22 2 140 6 123 10 34
